Data path: /scratch/opt/lxu/CFLG/benchmarks/random_B
Instance: r_40_0.1_84.txt
Result path: /scratch/opt/lxu/CFLG/results/random_B
Solver: Gurobi
Time limit: 7200
Formulation: LEFPAI
Cover: Small
julia --project=. src/main.jl /scratch/opt/lxu/CFLG/benchmarks/random_B r_40_0.1_84.txt /scratch/opt/lxu/CFLG/results/random_B Gurobi 7200 LEFPAI Small
The latest version of Julia in the `release` channel is 1.11.6+0.x64.linux.gnu. You currently have `1.11.4+0.x64.linux.gnu` installed. Run:

  juliaup update

in your terminal shell to install Julia 1.11.6+0.x64.linux.gnu and update the `release` channel to that version.
/scratch/opt/lxu/CFLG/benchmarks/random_B Gurobi 7200.0 /scratch/opt/lxu/CFLG/results/random_B r_40_0.1_84.txt LEFPAI Small
/scratch/opt/lxu/CFLG/benchmarks/random_B/r_40_0.1_84.txt

 read graph
data loaded


after absorb:36 40

max_piece:12
problem_graph/original graph: node: 40/40 edge: 84/84 dlt: 0.15172311284466455 break_avg_len: 0.6068924513786582 break_max_len: 1.7728588366852929Vbar/V, Ebar/E(39, 40, 83, 84)
Set parameter TokenServer to value "solice01.zib.de"
Set parameter Threads to value 1
Set parameter OutputFlag to value 1
Gurobi Optimizer version 12.0.1 build v12.0.1rc0 (linux64 - "Debian GNU/Linux 12 (bookworm)")

CPU model: Intel(R) Xeon(R) Gold 5122 CPU @ 3.60GHz, instruction set [SSE2|AVX|AVX2|AVX512]
Thread count: 8 physical cores, 16 logical processors, using up to 1 threads

Non-default parameters:
Threads  1

Optimize a model with 124 rows, 252 columns and 420 nonzeros
Model fingerprint: 0xef2541a2
Coefficient statistics:
  Matrix range     [1e+00, 1e+00]
  Objective range  [1e+00, 1e+00]
  Bounds range     [1e+00, 1e+00]
  RHS range        [1e+00, 1e+00]
Presolve removed 15 rows and 19 columns
Presolve time: 0.00s
Presolved: 109 rows, 233 columns, 386 nonzeros

Iteration    Objective       Primal Inf.    Dual Inf.      Time
       0    8.3000000e+01   5.500000e+01   0.000000e+00      0s
     112    3.7000000e+01   0.000000e+00   0.000000e+00      0s

Solved in 112 iterations and 0.00 seconds (0.00 work units)
Optimal objective  3.700000000e+01

User-callback calls 191, time in user-callback 0.01 sec
elapsed CPU time: 1.424326 seconds
Set parameter TokenServer to value "solice01.zib.de"
Set parameter Threads to value 1
Set parameter OutputFlag to value 1
Set parameter MIPGap to value 0.0001
Set parameter TimeLimit to value 7198.575674

 more cuts: false 0.15172311284466455 false
is_attach:trueformulation:LEFPAI75 9 5

 model loaded

Gurobi Optimizer version 12.0.1 build v12.0.1rc0 (linux64 - "Debian GNU/Linux 12 (bookworm)")

CPU model: Intel(R) Xeon(R) Gold 5122 CPU @ 3.60GHz, instruction set [SSE2|AVX|AVX2|AVX512]
Thread count: 8 physical cores, 16 logical processors, using up to 1 threads

Non-default parameters:
TimeLimit  7198.575674
Threads  1

Optimize a model with 1028 rows, 756 columns and 1921 nonzeros
Model fingerprint: 0xb44f6d05
Model has 270 simple general constraints
  270 INDICATOR
Variable types: 208 continuous, 548 integer (548 binary)
Coefficient statistics:
  Matrix range     [4e-04, 1e+00]
  Objective range  [1e+00, 1e+00]
  Bounds range     [9e-02, 2e+00]
  RHS range        [4e-03, 2e+00]
  GenCon rhs range [2e-07, 2e+00]
  GenCon coe range [1e+00, 1e+00]
Presolve removed 514 rows and 268 columns
Presolve time: 0.02s
Presolved: 514 rows, 488 columns, 1860 nonzeros
Variable types: 193 continuous, 295 integer (295 binary)
Found heuristic solution: objective 161.0000000
Found heuristic solution: objective 159.0000000

Root relaxation: objective 1.310000e+02, 450 iterations, 0.00 seconds (0.00 work units)

    Nodes    |    Current Node    |     Objective Bounds      |     Work
 Expl Unexpl |  Obj  Depth IntInf | Incumbent    BestBd   Gap | It/Node Time

     0     0  131.00000    0   91  159.00000  131.00000  17.6%     -    0s
H    0     0                     155.0000000  131.00000  15.5%     -    0s
H    0     0                     154.0000000  131.00000  14.9%     -    0s
     0     0  134.03510    0  101  154.00000  134.03510  13.0%     -    0s
H    0     0                     150.0000000  134.03510  10.6%     -    0s
     0     0  134.04074    0  101  150.00000  134.04074  10.6%     -    0s
     0     0  136.64822    0  120  150.00000  136.64822  8.90%     -    0s
     0     0  136.83491    0  112  150.00000  136.83491  8.78%     -    0s
     0     0  136.83491    0  112  150.00000  136.83491  8.78%     -    0s
     0     0  136.83491    0  117  150.00000  136.83491  8.78%     -    0s
     0     0  140.01129    0  113  150.00000  140.01129  6.66%     -    0s
H    0     0                     149.0000000  140.01129  6.03%     -    0s
     0     0  140.07176    0  115  149.00000  140.07176  5.99%     -    0s
     0     0  140.10291    0  114  149.00000  140.10291  5.97%     -    0s
     0     0  140.10320    0  122  149.00000  140.10320  5.97%     -    0s
     0     0  140.33015    0  122  149.00000  140.33015  5.82%     -    0s
     0     0  140.60187    0  119  149.00000  140.60187  5.64%     -    0s
     0     0  140.60187    0  125  149.00000  140.60187  5.64%     -    0s
     0     0  140.60187    0  137  149.00000  140.60187  5.64%     -    0s
     0     0  140.60187    0  128  149.00000  140.60187  5.64%     -    0s
     0     0  140.60187    0  130  149.00000  140.60187  5.64%     -    0s
     0     0  140.60187    0  126  149.00000  140.60187  5.64%     -    0s
     0     0  140.60187    0  125  149.00000  140.60187  5.64%     -    0s
     0     0  140.62214    0  106  149.00000  140.62214  5.62%     -    0s
     0     0  140.64997    0  107  149.00000  140.64997  5.60%     -    0s
     0     0  140.65044    0  109  149.00000  140.65044  5.60%     -    0s
     0     0  140.67569    0  111  149.00000  140.67569  5.59%     -    0s
     0     0  140.67569    0   91  149.00000  140.67569  5.59%     -    0s
H    0     0                     148.0000000  140.67838  4.95%     -    0s
     0     2  140.71762    0   85  148.00000  140.71762  4.92%     -    0s
H   54    52                     147.0000000  141.00000  4.08%  21.3    0s
  2150   935  143.73210   17   82  147.00000  143.57073  2.33%  30.3    5s
H 2220   638                     145.9999991  143.59180  1.65%  30.5    5s
  5237  1548  144.63637   23   76  146.00000  143.98451  1.38%  33.2   10s
  7852  2057     cutoff   34       146.00000  144.00000  1.37%  37.3   15s
 10021  2667     cutoff   53       146.00000  144.00000  1.37%  38.3   20s
 10234  2760  144.35064   17  114  146.00000  144.00000  1.37%  38.1   25s
 10329  2823  144.11497   21  164  146.00000  144.00000  1.37%  37.7   30s
 10411  2878  144.11310   17  178  146.00000  144.00000  1.37%  37.4   35s
 11267  3001  144.15558   30  107  146.00000  144.00000  1.37%  43.2   40s
 12935  3072  145.00000   31   69  146.00000  144.09208  1.31%  46.3   45s
 14910  2930  144.59091   39   69  146.00000  144.23800  1.21%  49.3   50s
 16829  2588     cutoff   35       146.00000  144.35117  1.13%  51.7   55s
 18775  2122  145.00000   36   64  146.00000  144.47437  1.04%  53.9   60s
 20598  2088     cutoff   32       146.00000  144.54857  0.99%  56.2   65s
 22435  1735  145.00000   36   65  146.00000  144.76890  0.84%  58.5   70s
 24350  1460     cutoff   43       146.00000  145.00000  0.68%  60.3   75s
 25906   897     cutoff   37       146.00000  145.00000  0.68%  63.2   80s
 27518   425     cutoff   40       146.00000  145.00000  0.68%  65.2   85s
 29284   173     cutoff   38       146.00000  145.00000  0.68%  66.6   90s

Cutting planes:
  Gomory: 15
  Cover: 185
  Implied bound: 32
  Clique: 2
  MIR: 179
  Mixing: 7
  StrongCG: 1
  Flow cover: 616
  GUB cover: 22
  Inf proof: 5
  Zero half: 29
  RLT: 11
  Relax-and-lift: 17

Explored 30799 nodes (2074440 simplex iterations) in 94.06 seconds (71.17 work units)
Thread count was 1 (of 16 available processors)

Solution count 9: 146 147 148 ... 161

Optimal solution found (tolerance 1.00e-04)
Best objective 1.459999990804e+02, best bound 1.459999990804e+02, gap 0.0000%

User-callback calls 98605, time in user-callback 0.08 sec

 sepatime0 0 0
145.9999990803709
Stat(MathOptInterface.OPTIMAL, 145.9999990803709, 145.9999990803709, 0.0, 0.0, 1.424326, 94.06164288520813, 30799, Main.CFLG.LEFPAI, "", #undef)
